22
 1 264 12
 2 22 1
 3 220 10
 4 220 10
 5 286 13
 6 286 13
 7 352 16
 8 264 12
 9 88 4
 10 66 3
 11 132 6
 12 22 1
 13 176 8
 14 330 15
 15 242 11
 16 330 15
 17 44 2
 18 176 8
 19 264 12
 20 22 1
 21 396 18
 22 440 20
418